(set-info :source |printed by MathSAT|)
(declare-fun |main::tmp_var_2_int@2| () (_ BitVec 32))
(declare-fun |assume::cond@2| () (_ BitVec 32))
(declare-fun |main::tmp_var_3_int@2| () (_ BitVec 32))
(declare-fun |assume::cond@4| () (_ BitVec 32))
(declare-fun |main::tmp_var_4_int@2| () (_ BitVec 32))
(declare-fun |assume::cond@6| () (_ BitVec 32))
(declare-fun |main::tmp_var_5_int@2| () (_ BitVec 32))
(declare-fun |assume::cond@8| () (_ BitVec 32))
(declare-fun |main::tmp_var_6_int@2| () (_ BitVec 32))
(declare-fun |assume::cond@10| () (_ BitVec 32))
(declare-fun |main::tmp_var_7_int@2| () (_ BitVec 32))
(declare-fun |assume::cond@12| () (_ BitVec 32))
(declare-fun |main::tmp_var_8_int@2| () (_ BitVec 32))
(declare-fun |assume::cond@14| () (_ BitVec 32))
(declare-fun |main::tmp_var_9_int@2| () (_ BitVec 32))
(declare-fun |assume::cond@16| () (_ BitVec 32))
(declare-fun |main::tmp_var_10_int@2| () (_ BitVec 32))
(declare-fun |assume::cond@18| () (_ BitVec 32))
(declare-fun |main::tmp_var_11_int@2| () (_ BitVec 32))
(declare-fun |assume::cond@20| () (_ BitVec 32))
(declare-fun |main::myvar0@2| () (_ BitVec 32))
(declare-fun |assume::cond@22| () (_ BitVec 32))
(declare-fun |assume::cond@24| () (_ BitVec 32))
(declare-fun |assume::cond@26| () (_ BitVec 32))
(declare-fun |assume::cond@28| () (_ BitVec 32))
(declare-fun |assume::cond@30| () (_ BitVec 32))
(declare-fun |assume::cond@32| () (_ BitVec 32))
(declare-fun |assume::cond@34| () (_ BitVec 32))
(declare-fun |assume::cond@36| () (_ BitVec 32))
(declare-fun |assume::cond@38| () (_ BitVec 32))
(declare-fun |assume::cond@40| () (_ BitVec 32))
(declare-fun |assume::cond@42| () (_ BitVec 32))
(declare-fun |assume::cond@44| () (_ BitVec 32))
(declare-fun |assume::cond@46| () (_ BitVec 32))
(declare-fun |assume::cond@48| () (_ BitVec 32))
(declare-fun |assume::cond@50| () (_ BitVec 32))
(declare-fun |assume::cond@52| () (_ BitVec 32))
(declare-fun |assume::cond@54| () (_ BitVec 32))
(declare-fun |assume::cond@56| () (_ BitVec 32))
(declare-fun |assume::cond@58| () (_ BitVec 32))
(declare-fun |assume::cond@60| () (_ BitVec 32))
(declare-fun |assume::cond@62| () (_ BitVec 32))
(declare-fun |assume::cond@64| () (_ BitVec 32))
(declare-fun |assume::cond@66| () (_ BitVec 32))
(declare-fun |assume::cond@68| () (_ BitVec 32))
(declare-fun |assume::cond@70| () (_ BitVec 32))
(declare-fun |assume::cond@72| () (_ BitVec 32))
(declare-fun |assume::cond@74| () (_ BitVec 32))
(declare-fun |assume::cond@76| () (_ BitVec 32))
(declare-fun |assume::cond@78| () (_ BitVec 32))
(declare-fun |assume::cond@80| () (_ BitVec 32))
(declare-fun |assume::cond@82| () (_ BitVec 32))
(declare-fun |assume::cond@84| () (_ BitVec 32))
(declare-fun |assume::cond@86| () (_ BitVec 32))
(declare-fun |assume::cond@88| () (_ BitVec 32))
(declare-fun |assume::cond@90| () (_ BitVec 32))
(declare-fun |assume::cond@92| () (_ BitVec 32))
(declare-fun |assume::cond@94| () (_ BitVec 32))
(declare-fun |main::uVar1@50| () (_ BitVec 32))
(declare-fun |assume::cond@96| () (_ BitVec 32))
(declare-fun |main::uVar1@52| () (_ BitVec 32))
(declare-fun |assume::cond@98| () (_ BitVec 32))
(declare-fun |main::uVar1@54| () (_ BitVec 32))
(declare-fun |assume::cond@100| () (_ BitVec 32))
(declare-fun |main::uVar1@56| () (_ BitVec 32))
(declare-fun |assume::cond@102| () (_ BitVec 32))
(declare-fun |main::uVar1@58| () (_ BitVec 32))
(declare-fun |assume::cond@104| () (_ BitVec 32))
(assert (let ((.def_1208 (= |assume::cond@104| (_ bv0 32))))(let ((.def_1210 (not .def_1208)))(let ((.def_1201 (bvneg |main::uVar1@58|)))(let ((.def_604 (bvneg |main::tmp_var_7_int@2|)))(let ((.def_605 (bvadd |main::tmp_var_6_int@2| .def_604)))(let ((.def_1199 (bvxor .def_605 |main::uVar1@58|)))(let ((.def_1202 (bvadd .def_1199 .def_1201)))(let ((.def_1203 (= |main::myvar0@2| .def_1202)))(let ((.def_1204 (ite .def_1203 (_ bv1 32) (_ bv0 32))))(let ((.def_1206 (= .def_1204 |assume::cond@104|)))(let ((.def_606 (bvashr .def_605 (_ bv31 32))))(let ((.def_1197 (= .def_606 |main::uVar1@58|)))(let ((.def_1192 (= |assume::cond@102| (_ bv0 32))))(let ((.def_1194 (not .def_1192)))(let ((.def_1185 (bvneg |main::uVar1@56|)))(let ((.def_583 (bvneg |main::tmp_var_6_int@2|)))(let ((.def_584 (bvadd |main::tmp_var_5_int@2| .def_583)))(let ((.def_1183 (bvxor .def_584 |main::uVar1@56|)))(let ((.def_1186 (bvadd .def_1183 .def_1185)))(let ((.def_1187 (= |main::tmp_var_11_int@2| .def_1186)))(let ((.def_1188 (ite .def_1187 (_ bv1 32) (_ bv0 32))))(let ((.def_1190 (= .def_1188 |assume::cond@102|)))(let ((.def_585 (bvashr .def_584 (_ bv31 32))))(let ((.def_1181 (= .def_585 |main::uVar1@56|)))(let ((.def_1176 (= |assume::cond@100| (_ bv0 32))))(let ((.def_1178 (not .def_1176)))(let ((.def_1169 (bvneg |main::uVar1@54|)))(let ((.def_562 (bvneg |main::tmp_var_5_int@2|)))(let ((.def_563 (bvadd |main::tmp_var_4_int@2| .def_562)))(let ((.def_1167 (bvxor .def_563 |main::uVar1@54|)))(let ((.def_1170 (bvadd .def_1167 .def_1169)))(let ((.def_1171 (= |main::tmp_var_10_int@2| .def_1170)))(let ((.def_1172 (ite .def_1171 (_ bv1 32) (_ bv0 32))))(let ((.def_1174 (= .def_1172 |assume::cond@100|)))(let ((.def_564 (bvashr .def_563 (_ bv31 32))))(let ((.def_1165 (= .def_564 |main::uVar1@54|)))(let ((.def_1160 (= |assume::cond@98| (_ bv0 32))))(let ((.def_1162 (not .def_1160)))(let ((.def_1153 (bvneg |main::uVar1@52|)))(let ((.def_541 (bvneg |main::tmp_var_4_int@2|)))(let ((.def_542 (bvadd |main::tmp_var_3_int@2| .def_541)))(let ((.def_1151 (bvxor .def_542 |main::uVar1@52|)))(let ((.def_1154 (bvadd .def_1151 .def_1153)))(let ((.def_1155 (= |main::tmp_var_9_int@2| .def_1154)))(let ((.def_1156 (ite .def_1155 (_ bv1 32) (_ bv0 32))))(let ((.def_1158 (= .def_1156 |assume::cond@98|)))(let ((.def_543 (bvashr .def_542 (_ bv31 32))))(let ((.def_1149 (= .def_543 |main::uVar1@52|)))(let ((.def_1144 (= |assume::cond@96| (_ bv0 32))))(let ((.def_1146 (not .def_1144)))(let ((.def_1137 (bvneg |main::uVar1@50|)))(let ((.def_520 (bvneg |main::tmp_var_3_int@2|)))(let ((.def_521 (bvadd |main::tmp_var_2_int@2| .def_520)))(let ((.def_1135 (bvxor .def_521 |main::uVar1@50|)))(let ((.def_1138 (bvadd .def_1135 .def_1137)))(let ((.def_1139 (= |main::tmp_var_8_int@2| .def_1138)))(let ((.def_1140 (ite .def_1139 (_ bv1 32) (_ bv0 32))))(let ((.def_1142 (= .def_1140 |assume::cond@96|)))(let ((.def_522 (bvashr .def_521 (_ bv31 32))))(let ((.def_1133 (= .def_522 |main::uVar1@50|)))(let ((.def_1128 (= |assume::cond@94| (_ bv0 32))))(let ((.def_1130 (not .def_1128)))(let ((.def_508 (= |main::tmp_var_11_int@2| |main::myvar0@2|)))(let ((.def_509 (not .def_508)))(let ((.def_510 (ite .def_509 (_ bv1 32) (_ bv0 32))))(let ((.def_1126 (= .def_510 |assume::cond@94|)))(let ((.def_1121 (= |assume::cond@92| (_ bv0 32))))(let ((.def_1123 (not .def_1121)))(let ((.def_497 (= |main::tmp_var_10_int@2| |main::myvar0@2|)))(let ((.def_498 (not .def_497)))(let ((.def_499 (ite .def_498 (_ bv1 32) (_ bv0 32))))(let ((.def_1119 (= .def_499 |assume::cond@92|)))(let ((.def_1114 (= |assume::cond@90| (_ bv0 32))))(let ((.def_1116 (not .def_1114)))(let ((.def_486 (= |main::tmp_var_10_int@2| |main::tmp_var_11_int@2|)))(let ((.def_487 (not .def_486)))(let ((.def_488 (ite .def_487 (_ bv1 32) (_ bv0 32))))(let ((.def_1112 (= .def_488 |assume::cond@90|)))(let ((.def_1107 (= |assume::cond@88| (_ bv0 32))))(let ((.def_1109 (not .def_1107)))(let ((.def_475 (= |main::tmp_var_9_int@2| |main::myvar0@2|)))(let ((.def_476 (not .def_475)))(let ((.def_477 (ite .def_476 (_ bv1 32) (_ bv0 32))))(let ((.def_1105 (= .def_477 |assume::cond@88|)))(let ((.def_1100 (= |assume::cond@86| (_ bv0 32))))(let ((.def_1102 (not .def_1100)))(let ((.def_464 (= |main::tmp_var_9_int@2| |main::tmp_var_11_int@2|)))(let ((.def_465 (not .def_464)))(let ((.def_466 (ite .def_465 (_ bv1 32) (_ bv0 32))))(let ((.def_1098 (= .def_466 |assume::cond@86|)))(let ((.def_1093 (= |assume::cond@84| (_ bv0 32))))(let ((.def_1095 (not .def_1093)))(let ((.def_453 (= |main::tmp_var_9_int@2| |main::tmp_var_10_int@2|)))(let ((.def_454 (not .def_453)))(let ((.def_455 (ite .def_454 (_ bv1 32) (_ bv0 32))))(let ((.def_1091 (= .def_455 |assume::cond@84|)))(let ((.def_1086 (= |assume::cond@82| (_ bv0 32))))(let ((.def_1088 (not .def_1086)))(let ((.def_442 (= |main::tmp_var_8_int@2| |main::myvar0@2|)))(let ((.def_443 (not .def_442)))(let ((.def_444 (ite .def_443 (_ bv1 32) (_ bv0 32))))(let ((.def_1084 (= .def_444 |assume::cond@82|)))(let ((.def_1079 (= |assume::cond@80| (_ bv0 32))))(let ((.def_1081 (not .def_1079)))(let ((.def_431 (= |main::tmp_var_8_int@2| |main::tmp_var_11_int@2|)))(let ((.def_432 (not .def_431)))(let ((.def_433 (ite .def_432 (_ bv1 32) (_ bv0 32))))(let ((.def_1077 (= .def_433 |assume::cond@80|)))(let ((.def_1072 (= |assume::cond@78| (_ bv0 32))))(let ((.def_1074 (not .def_1072)))(let ((.def_420 (= |main::tmp_var_8_int@2| |main::tmp_var_10_int@2|)))(let ((.def_421 (not .def_420)))(let ((.def_422 (ite .def_421 (_ bv1 32) (_ bv0 32))))(let ((.def_1070 (= .def_422 |assume::cond@78|)))(let ((.def_1065 (= |assume::cond@76| (_ bv0 32))))(let ((.def_1067 (not .def_1065)))(let ((.def_409 (= |main::tmp_var_8_int@2| |main::tmp_var_9_int@2|)))(let ((.def_410 (not .def_409)))(let ((.def_411 (ite .def_410 (_ bv1 32) (_ bv0 32))))(let ((.def_1063 (= .def_411 |assume::cond@76|)))(let ((.def_1058 (= |assume::cond@74| (_ bv0 32))))(let ((.def_1060 (not .def_1058)))(let ((.def_398 (= |main::tmp_var_6_int@2| |main::tmp_var_7_int@2|)))(let ((.def_399 (not .def_398)))(let ((.def_400 (ite .def_399 (_ bv1 32) (_ bv0 32))))(let ((.def_1056 (= .def_400 |assume::cond@74|)))(let ((.def_1051 (= |assume::cond@72| (_ bv0 32))))(let ((.def_1053 (not .def_1051)))(let ((.def_387 (= |main::tmp_var_5_int@2| |main::tmp_var_7_int@2|)))(let ((.def_388 (not .def_387)))(let ((.def_389 (ite .def_388 (_ bv1 32) (_ bv0 32))))(let ((.def_1049 (= .def_389 |assume::cond@72|)))(let ((.def_1044 (= |assume::cond@70| (_ bv0 32))))(let ((.def_1046 (not .def_1044)))(let ((.def_376 (= |main::tmp_var_5_int@2| |main::tmp_var_6_int@2|)))(let ((.def_377 (not .def_376)))(let ((.def_378 (ite .def_377 (_ bv1 32) (_ bv0 32))))(let ((.def_1042 (= .def_378 |assume::cond@70|)))(let ((.def_1037 (= |assume::cond@68| (_ bv0 32))))(let ((.def_1039 (not .def_1037)))(let ((.def_365 (= |main::tmp_var_4_int@2| |main::tmp_var_7_int@2|)))(let ((.def_366 (not .def_365)))(let ((.def_367 (ite .def_366 (_ bv1 32) (_ bv0 32))))(let ((.def_1035 (= .def_367 |assume::cond@68|)))(let ((.def_1030 (= |assume::cond@66| (_ bv0 32))))(let ((.def_1032 (not .def_1030)))(let ((.def_354 (= |main::tmp_var_4_int@2| |main::tmp_var_6_int@2|)))(let ((.def_355 (not .def_354)))(let ((.def_356 (ite .def_355 (_ bv1 32) (_ bv0 32))))(let ((.def_1028 (= .def_356 |assume::cond@66|)))(let ((.def_1023 (= |assume::cond@64| (_ bv0 32))))(let ((.def_1025 (not .def_1023)))(let ((.def_343 (= |main::tmp_var_4_int@2| |main::tmp_var_5_int@2|)))(let ((.def_344 (not .def_343)))(let ((.def_345 (ite .def_344 (_ bv1 32) (_ bv0 32))))(let ((.def_1021 (= .def_345 |assume::cond@64|)))(let ((.def_1016 (= |assume::cond@62| (_ bv0 32))))(let ((.def_1018 (not .def_1016)))(let ((.def_332 (= |main::tmp_var_3_int@2| |main::tmp_var_7_int@2|)))(let ((.def_333 (not .def_332)))(let ((.def_334 (ite .def_333 (_ bv1 32) (_ bv0 32))))(let ((.def_1014 (= .def_334 |assume::cond@62|)))(let ((.def_1009 (= |assume::cond@60| (_ bv0 32))))(let ((.def_1011 (not .def_1009)))(let ((.def_321 (= |main::tmp_var_3_int@2| |main::tmp_var_6_int@2|)))(let ((.def_322 (not .def_321)))(let ((.def_323 (ite .def_322 (_ bv1 32) (_ bv0 32))))(let ((.def_1007 (= .def_323 |assume::cond@60|)))(let ((.def_1002 (= |assume::cond@58| (_ bv0 32))))(let ((.def_1004 (not .def_1002)))(let ((.def_310 (= |main::tmp_var_3_int@2| |main::tmp_var_5_int@2|)))(let ((.def_311 (not .def_310)))(let ((.def_312 (ite .def_311 (_ bv1 32) (_ bv0 32))))(let ((.def_1000 (= .def_312 |assume::cond@58|)))(let ((.def_995 (= |assume::cond@56| (_ bv0 32))))(let ((.def_997 (not .def_995)))(let ((.def_299 (= |main::tmp_var_3_int@2| |main::tmp_var_4_int@2|)))(let ((.def_300 (not .def_299)))(let ((.def_301 (ite .def_300 (_ bv1 32) (_ bv0 32))))(let ((.def_993 (= .def_301 |assume::cond@56|)))(let ((.def_988 (= |assume::cond@54| (_ bv0 32))))(let ((.def_990 (not .def_988)))(let ((.def_288 (= |main::tmp_var_2_int@2| |main::tmp_var_7_int@2|)))(let ((.def_289 (not .def_288)))(let ((.def_290 (ite .def_289 (_ bv1 32) (_ bv0 32))))(let ((.def_986 (= .def_290 |assume::cond@54|)))(let ((.def_277 (= |main::tmp_var_2_int@2| |main::tmp_var_6_int@2|)))(let ((.def_278 (not .def_277)))(let ((.def_279 (ite .def_278 (_ bv1 32) (_ bv0 32))))(let ((.def_982 (= .def_279 |assume::cond@52|)))(let ((.def_266 (= |main::tmp_var_2_int@2| |main::tmp_var_5_int@2|)))(let ((.def_267 (not .def_266)))(let ((.def_268 (ite .def_267 (_ bv1 32) (_ bv0 32))))(let ((.def_979 (= .def_268 |assume::cond@50|)))(let ((.def_255 (= |main::tmp_var_2_int@2| |main::tmp_var_4_int@2|)))(let ((.def_256 (not .def_255)))(let ((.def_257 (ite .def_256 (_ bv1 32) (_ bv0 32))))(let ((.def_976 (= .def_257 |assume::cond@48|)))(let ((.def_244 (= |main::tmp_var_2_int@2| |main::tmp_var_3_int@2|)))(let ((.def_245 (not .def_244)))(let ((.def_246 (ite .def_245 (_ bv1 32) (_ bv0 32))))(let ((.def_973 (= .def_246 |assume::cond@46|)))(let ((.def_234 (bvslt |main::myvar0@2| (_ bv6 32))))(let ((.def_235 (ite .def_234 (_ bv1 32) (_ bv0 32))))(let ((.def_970 (= .def_235 |assume::cond@44|)))(let ((.def_224 (bvslt (_ bv0 32) |main::myvar0@2|)))(let ((.def_225 (ite .def_224 (_ bv1 32) (_ bv0 32))))(let ((.def_967 (= .def_225 |assume::cond@42|)))(let ((.def_213 (bvslt |main::tmp_var_11_int@2| (_ bv6 32))))(let ((.def_214 (ite .def_213 (_ bv1 32) (_ bv0 32))))(let ((.def_964 (= .def_214 |assume::cond@40|)))(let ((.def_203 (bvslt (_ bv0 32) |main::tmp_var_11_int@2|)))(let ((.def_204 (ite .def_203 (_ bv1 32) (_ bv0 32))))(let ((.def_961 (= .def_204 |assume::cond@38|)))(let ((.def_192 (bvslt |main::tmp_var_10_int@2| (_ bv6 32))))(let ((.def_193 (ite .def_192 (_ bv1 32) (_ bv0 32))))(let ((.def_958 (= .def_193 |assume::cond@36|)))(let ((.def_182 (bvslt (_ bv0 32) |main::tmp_var_10_int@2|)))(let ((.def_183 (ite .def_182 (_ bv1 32) (_ bv0 32))))(let ((.def_955 (= .def_183 |assume::cond@34|)))(let ((.def_171 (bvslt |main::tmp_var_9_int@2| (_ bv6 32))))(let ((.def_172 (ite .def_171 (_ bv1 32) (_ bv0 32))))(let ((.def_952 (= .def_172 |assume::cond@32|)))(let ((.def_161 (bvslt (_ bv0 32) |main::tmp_var_9_int@2|)))(let ((.def_162 (ite .def_161 (_ bv1 32) (_ bv0 32))))(let ((.def_949 (= .def_162 |assume::cond@30|)))(let ((.def_150 (bvslt |main::tmp_var_8_int@2| (_ bv6 32))))(let ((.def_151 (ite .def_150 (_ bv1 32) (_ bv0 32))))(let ((.def_946 (= .def_151 |assume::cond@28|)))(let ((.def_140 (bvslt (_ bv0 32) |main::tmp_var_8_int@2|)))(let ((.def_141 (ite .def_140 (_ bv1 32) (_ bv0 32))))(let ((.def_943 (= .def_141 |assume::cond@26|)))(let ((.def_129 (bvslt |main::tmp_var_7_int@2| (_ bv6 32))))(let ((.def_130 (ite .def_129 (_ bv1 32) (_ bv0 32))))(let ((.def_940 (= .def_130 |assume::cond@24|)))(let ((.def_119 (bvnot |main::tmp_var_7_int@2|)))(let ((.def_120 (bvlshr .def_119 (_ bv31 32))))(let ((.def_937 (= .def_120 |assume::cond@22|)))(let ((.def_108 (bvslt |main::tmp_var_6_int@2| (_ bv6 32))))(let ((.def_109 (ite .def_108 (_ bv1 32) (_ bv0 32))))(let ((.def_934 (= .def_109 |assume::cond@20|)))(let ((.def_98 (bvnot |main::tmp_var_6_int@2|)))(let ((.def_99 (bvlshr .def_98 (_ bv31 32))))(let ((.def_931 (= .def_99 |assume::cond@18|)))(let ((.def_87 (bvslt |main::tmp_var_5_int@2| (_ bv6 32))))(let ((.def_88 (ite .def_87 (_ bv1 32) (_ bv0 32))))(let ((.def_928 (= .def_88 |assume::cond@16|)))(let ((.def_77 (bvnot |main::tmp_var_5_int@2|)))(let ((.def_78 (bvlshr .def_77 (_ bv31 32))))(let ((.def_925 (= .def_78 |assume::cond@14|)))(let ((.def_66 (bvslt |main::tmp_var_4_int@2| (_ bv6 32))))(let ((.def_67 (ite .def_66 (_ bv1 32) (_ bv0 32))))(let ((.def_922 (= .def_67 |assume::cond@12|)))(let ((.def_56 (bvnot |main::tmp_var_4_int@2|)))(let ((.def_57 (bvlshr .def_56 (_ bv31 32))))(let ((.def_919 (= .def_57 |assume::cond@10|)))(let ((.def_45 (bvslt |main::tmp_var_3_int@2| (_ bv6 32))))(let ((.def_46 (ite .def_45 (_ bv1 32) (_ bv0 32))))(let ((.def_916 (= .def_46 |assume::cond@8|)))(let ((.def_35 (bvnot |main::tmp_var_3_int@2|)))(let ((.def_36 (bvlshr .def_35 (_ bv31 32))))(let ((.def_913 (= .def_36 |assume::cond@6|)))(let ((.def_24 (bvslt |main::tmp_var_2_int@2| (_ bv6 32))))(let ((.def_25 (ite .def_24 (_ bv1 32) (_ bv0 32))))(let ((.def_910 (= .def_25 |assume::cond@4|)))(let ((.def_16 (= |assume::cond@2| (_ bv0 32))))(let ((.def_20 (not .def_16)))(let ((.def_11 (bvnot |main::tmp_var_2_int@2|)))(let ((.def_13 (bvlshr .def_11 (_ bv31 32))))(let ((.def_15 (= .def_13 |assume::cond@2|)))(let ((.def_21 (and .def_15 .def_20)))(let ((.def_911 (and .def_21 .def_910)))(let ((.def_40 (= |assume::cond@4| (_ bv0 32))))(let ((.def_43 (not .def_40)))(let ((.def_912 (and .def_43 .def_911)))(let ((.def_914 (and .def_912 .def_913)))(let ((.def_61 (= |assume::cond@6| (_ bv0 32))))(let ((.def_64 (not .def_61)))(let ((.def_915 (and .def_64 .def_914)))(let ((.def_917 (and .def_915 .def_916)))(let ((.def_82 (= |assume::cond@8| (_ bv0 32))))(let ((.def_85 (not .def_82)))(let ((.def_918 (and .def_85 .def_917)))(let ((.def_920 (and .def_918 .def_919)))(let ((.def_103 (= |assume::cond@10| (_ bv0 32))))(let ((.def_106 (not .def_103)))(let ((.def_921 (and .def_106 .def_920)))(let ((.def_923 (and .def_921 .def_922)))(let ((.def_124 (= |assume::cond@12| (_ bv0 32))))(let ((.def_127 (not .def_124)))(let ((.def_924 (and .def_127 .def_923)))(let ((.def_926 (and .def_924 .def_925)))(let ((.def_145 (= |assume::cond@14| (_ bv0 32))))(let ((.def_148 (not .def_145)))(let ((.def_927 (and .def_148 .def_926)))(let ((.def_929 (and .def_927 .def_928)))(let ((.def_166 (= |assume::cond@16| (_ bv0 32))))(let ((.def_169 (not .def_166)))(let ((.def_930 (and .def_169 .def_929)))(let ((.def_932 (and .def_930 .def_931)))(let ((.def_187 (= |assume::cond@18| (_ bv0 32))))(let ((.def_190 (not .def_187)))(let ((.def_933 (and .def_190 .def_932)))(let ((.def_935 (and .def_933 .def_934)))(let ((.def_208 (= |assume::cond@20| (_ bv0 32))))(let ((.def_211 (not .def_208)))(let ((.def_936 (and .def_211 .def_935)))(let ((.def_938 (and .def_936 .def_937)))(let ((.def_229 (= |assume::cond@22| (_ bv0 32))))(let ((.def_232 (not .def_229)))(let ((.def_939 (and .def_232 .def_938)))(let ((.def_941 (and .def_939 .def_940)))(let ((.def_250 (= |assume::cond@24| (_ bv0 32))))(let ((.def_253 (not .def_250)))(let ((.def_942 (and .def_253 .def_941)))(let ((.def_944 (and .def_942 .def_943)))(let ((.def_272 (= |assume::cond@26| (_ bv0 32))))(let ((.def_275 (not .def_272)))(let ((.def_945 (and .def_275 .def_944)))(let ((.def_947 (and .def_945 .def_946)))(let ((.def_294 (= |assume::cond@28| (_ bv0 32))))(let ((.def_297 (not .def_294)))(let ((.def_948 (and .def_297 .def_947)))(let ((.def_950 (and .def_948 .def_949)))(let ((.def_316 (= |assume::cond@30| (_ bv0 32))))(let ((.def_319 (not .def_316)))(let ((.def_951 (and .def_319 .def_950)))(let ((.def_953 (and .def_951 .def_952)))(let ((.def_338 (= |assume::cond@32| (_ bv0 32))))(let ((.def_341 (not .def_338)))(let ((.def_954 (and .def_341 .def_953)))(let ((.def_956 (and .def_954 .def_955)))(let ((.def_360 (= |assume::cond@34| (_ bv0 32))))(let ((.def_363 (not .def_360)))(let ((.def_957 (and .def_363 .def_956)))(let ((.def_959 (and .def_957 .def_958)))(let ((.def_382 (= |assume::cond@36| (_ bv0 32))))(let ((.def_385 (not .def_382)))(let ((.def_960 (and .def_385 .def_959)))(let ((.def_962 (and .def_960 .def_961)))(let ((.def_404 (= |assume::cond@38| (_ bv0 32))))(let ((.def_407 (not .def_404)))(let ((.def_963 (and .def_407 .def_962)))(let ((.def_965 (and .def_963 .def_964)))(let ((.def_426 (= |assume::cond@40| (_ bv0 32))))(let ((.def_429 (not .def_426)))(let ((.def_966 (and .def_429 .def_965)))(let ((.def_968 (and .def_966 .def_967)))(let ((.def_448 (= |assume::cond@42| (_ bv0 32))))(let ((.def_451 (not .def_448)))(let ((.def_969 (and .def_451 .def_968)))(let ((.def_971 (and .def_969 .def_970)))(let ((.def_470 (= |assume::cond@44| (_ bv0 32))))(let ((.def_473 (not .def_470)))(let ((.def_972 (and .def_473 .def_971)))(let ((.def_974 (and .def_972 .def_973)))(let ((.def_492 (= |assume::cond@46| (_ bv0 32))))(let ((.def_495 (not .def_492)))(let ((.def_975 (and .def_495 .def_974)))(let ((.def_977 (and .def_975 .def_976)))(let ((.def_514 (= |assume::cond@48| (_ bv0 32))))(let ((.def_517 (not .def_514)))(let ((.def_978 (and .def_517 .def_977)))(let ((.def_980 (and .def_978 .def_979)))(let ((.def_556 (= |assume::cond@50| (_ bv0 32))))(let ((.def_559 (not .def_556)))(let ((.def_981 (and .def_559 .def_980)))(let ((.def_983 (and .def_981 .def_982)))(let ((.def_598 (= |assume::cond@52| (_ bv0 32))))(let ((.def_601 (not .def_598)))(let ((.def_984 (and .def_601 .def_983)))(let ((.def_987 (and .def_984 .def_986)))(let ((.def_991 (and .def_987 .def_990)))(let ((.def_994 (and .def_991 .def_993)))(let ((.def_998 (and .def_994 .def_997)))(let ((.def_1001 (and .def_998 .def_1000)))(let ((.def_1005 (and .def_1001 .def_1004)))(let ((.def_1008 (and .def_1005 .def_1007)))(let ((.def_1012 (and .def_1008 .def_1011)))(let ((.def_1015 (and .def_1012 .def_1014)))(let ((.def_1019 (and .def_1015 .def_1018)))(let ((.def_1022 (and .def_1019 .def_1021)))(let ((.def_1026 (and .def_1022 .def_1025)))(let ((.def_1029 (and .def_1026 .def_1028)))(let ((.def_1033 (and .def_1029 .def_1032)))(let ((.def_1036 (and .def_1033 .def_1035)))(let ((.def_1040 (and .def_1036 .def_1039)))(let ((.def_1043 (and .def_1040 .def_1042)))(let ((.def_1047 (and .def_1043 .def_1046)))(let ((.def_1050 (and .def_1047 .def_1049)))(let ((.def_1054 (and .def_1050 .def_1053)))(let ((.def_1057 (and .def_1054 .def_1056)))(let ((.def_1061 (and .def_1057 .def_1060)))(let ((.def_1064 (and .def_1061 .def_1063)))(let ((.def_1068 (and .def_1064 .def_1067)))(let ((.def_1071 (and .def_1068 .def_1070)))(let ((.def_1075 (and .def_1071 .def_1074)))(let ((.def_1078 (and .def_1075 .def_1077)))(let ((.def_1082 (and .def_1078 .def_1081)))(let ((.def_1085 (and .def_1082 .def_1084)))(let ((.def_1089 (and .def_1085 .def_1088)))(let ((.def_1092 (and .def_1089 .def_1091)))(let ((.def_1096 (and .def_1092 .def_1095)))(let ((.def_1099 (and .def_1096 .def_1098)))(let ((.def_1103 (and .def_1099 .def_1102)))(let ((.def_1106 (and .def_1103 .def_1105)))(let ((.def_1110 (and .def_1106 .def_1109)))(let ((.def_1113 (and .def_1110 .def_1112)))(let ((.def_1117 (and .def_1113 .def_1116)))(let ((.def_1120 (and .def_1117 .def_1119)))(let ((.def_1124 (and .def_1120 .def_1123)))(let ((.def_1127 (and .def_1124 .def_1126)))(let ((.def_1131 (and .def_1127 .def_1130)))(let ((.def_1134 (and .def_1131 .def_1133)))(let ((.def_1143 (and .def_1134 .def_1142)))(let ((.def_1147 (and .def_1143 .def_1146)))(let ((.def_1150 (and .def_1147 .def_1149)))(let ((.def_1159 (and .def_1150 .def_1158)))(let ((.def_1163 (and .def_1159 .def_1162)))(let ((.def_1166 (and .def_1163 .def_1165)))(let ((.def_1175 (and .def_1166 .def_1174)))(let ((.def_1179 (and .def_1175 .def_1178)))(let ((.def_1182 (and .def_1179 .def_1181)))(let ((.def_1191 (and .def_1182 .def_1190)))(let ((.def_1195 (and .def_1191 .def_1194)))(let ((.def_1198 (and .def_1195 .def_1197)))(let ((.def_1207 (and .def_1198 .def_1206)))(let ((.def_1211 (and .def_1207 .def_1210))).def_1211)))))))))))))))))))))))))))))))))))))))))))))))))))))))))))))))))))))))))))))))))))))))))))))))))))))))))))))))))))))))))))))))))))))))))))))))))))))))))))))))))))))))))))))))))))))))))))))))))))))))))))))))))))))))))))))))))))))))))))))))))))))))))))))))))))))))))))))))))))))))))))))))))))))))))))))))))))))))))))))))))))))))))))))))))))))))))))))))))))))))))))))))))))))))))))))))))))))))))))))))))))))))))))))))))))))))))))))